GLPSOL--GLPK LP/MIP Solver 5.0
Parameter(s) specified in the command line:
 --lp ../modeles/10_279.lp --log 10_279.log
Reading problem data from '../modeles/10_279.lp'...
2831 rows, 5600 columns, 19580 non-zeros
2790 integer variables, all of which are binary
8447 lines were read
GLPK Integer Optimizer 5.0
2831 rows, 5600 columns, 19580 non-zeros
2790 integer variables, all of which are binary
Preprocessing...
2780 constraint coefficient(s) were reduced
2831 rows, 5590 columns, 19570 non-zeros
2790 integer variables, all of which are binary
Scaling...
 A: min|aij| =  5.139e-05  max|aij| =  4.000e+00  ratio =  7.784e+04
GM: min|aij| =  5.987e-02  max|aij| =  1.670e+01  ratio =  2.790e+02
EQ: min|aij| =  3.584e-03  max|aij| =  1.000e+00  ratio =  2.790e+02
2N: min|aij| =  3.289e-03  max|aij| =  1.748e+00  ratio =  5.316e+02
Constructing initial basis...
Size of triangular part is 2831
Solving LP relaxation...
GLPK Simplex Optimizer 5.0
2831 rows, 5590 columns, 19570 non-zeros
      0: obj =   2.000000000e+01 inf =   4.950e+01 (21)
    169: obj =   4.997494861e-01 inf =   0.000e+00 (0)
*   516: obj =  -3.161473607e+00 inf =   2.629e-16 (0)
OPTIMAL LP SOLUTION FOUND
Integer optimization begins...
Long-step dual simplex will be used
+   516: mip =     not found yet >=              -inf        (1; 0)
+   871: >>>>>  -3.161473607e+00 >=  -3.161473607e+00 < 0.1% (352; 0)
+   871: mip =  -3.161473607e+00 >=     tree is empty   0.0% (0; 703)
INTEGER OPTIMAL SOLUTION FOUND
Time used:   1.8 secs
Memory used: 8.1 Mb (8516440 bytes)
